% Auto-generated by scripts/generate_dzn.py
% problem_type   = regex
% instance       = regex_96
% source_json    = instances_json/1_medium_blowup/regex_96.json
% blowup         = 9.923076923076923
% representation = NFA

mode = 1;

var_count = 35;
Q = 13;
S = 3;
q0 = 1;
F = {13};
d_dfa = array2d(1..13, 1..3, [
  0, 0, 0,
  0, 0, 0,
  0, 0, 0,
  0, 0, 0,
  0, 0, 0,
  0, 0, 0,
  0, 0, 0,
  0, 0, 0,
  0, 0, 0,
  0, 0, 0,
  0, 0, 0,
  0, 0, 0,
  0, 0, 0
]);
d_nfa = array2d(1..13, 1..3, [
  {1}, {1}, {1, 2},
  {}, {}, {3},
  {}, {4}, {},
  {5}, {5}, {5},
  {6}, {6}, {6},
  {7}, {7}, {7},
  {8}, {8}, {8},
  {9}, {9}, {9},
  {10}, {10}, {10},
  {11}, {11}, {11},
  {12}, {12}, {12},
  {13}, {13}, {13},
  {}, {}, {}
]);
